c read Graph
c width = 197
c time = 104 ms
c width = 20
c time = 210 ms
c width = 18
c time = 291 ms
c width = 17
c time = 1753 ms
c width = 16
c time = 2817 ms
c width = 15
c time = 4572 ms
c width = 15
c time = 5234 ms
s td 179 16 210
b 1 1 2 16
b 2 2 3 16 17
b 3 13 14 29 30
b 4 3 16 17 31
b 5 13 29 30 45
b 6 166 181 182 197
b 7 180 194 195 209
b 8 166 182 197 198
b 9 180 194 208 209
b 10 3 4 5 19
b 11 3 5 18 19 32 46
b 12 5 18 19 32 34 46 48
b 13 5 19 32 34 46 48 62
b 14 5 19 34 46 48 62 76
b 15 5 19 21 34 35 48 62 76
b 16 5 21 34 35 48 50 62 64 76
b 17 5 21 35 48 50 62 64 76 78
b 18 5 21 35 50 62 64 76 78 92
b 19 5 21 35 37 50 51 64 76 78 92
b 20 5 21 37 50 51 64 66 76 78 80 92
b 21 50 64 65 66 80
b 22 5 21 37 51 64 66 76 78 80 92 94
b 23 64 78 79 80 94
b 24 5 21 37 51 66 76 78 80 92 94 108
b 25 78 92 93 94 108
b 26 5 21 37 51 53 66 67 76 80 92 94 108
b 27 37 51 52 53 67
b 28 5 9 21 25 37 39 53 66 67 76 80 92 94 108
b 29 5 9 21 23 25 37 39 53
b 30 23 37 38 39 53
b 31 9 23 24 25 39
b 32 5 7 9 21 23 37
b 33 5 6 7 21
b 34 7 8 9 23
b 35 7 21 22 23 37
b 36 9 25 39 53 66 67 76 80 83 92 94 97 108 110 111
b 37 9 25 39 53 67 69 76 83 92 94 97 108 110 111
b 38 53 67 68 69 83
b 39 9 25 39 53 69 76 83 92 94 97 108 110 111 122 136
b 40 76 92 106 108 122 136
b 41 106 121 122 136
b 42 76 91 92 106
b 43 92 106 107 108 122
b 44 9 25 39 53 69 83 94 97 108 110 111 122 124 136
b 45 94 108 109 110 124
b 46 9 25 39 53 69 83 97 108 110 111 122 124 136 138
b 47 9 25 39 53 69 83 97 110 111 122 124 125 136 138
b 48 9 25 39 53 69 83 97 111 122 124 125 136 138 139
b 49 9 25 39 53 69 83 97 111 122 125 136 137 138 139
b 50 9 25 39 53 69 83 97 111 125 136 137 138 139 152
b 51 9 25 39 53 69 83 97 111 125 136 138 139 152 153
b 52 9 25 39 53 69 83 97 111 125 136 139 152 153 169 185 199
b 53 9 25 39 53 69 83 97 111 125 139 140 153 154 169 185 199
b 54 9 25 39 53 69 83 97 111 125 140 141 154 155 169 185 199
b 55 9 25 39 53 69 83 97 111 125 141 155 169 171 185 199
b 56 9 25 39 53 69 83 97 111 125 141 155 171 185 187 199 201
b 57 9 25 39 53 69 83 97 111 125 141 155 157 171 187 199 201
b 58 141 155 156 157 171 187 201
b 59 9 25 39 53 55 69 83 97 111 125 141 157 171 187 201
b 60 9 25 39 55 69 83 97 111 125 127 141 157 171 187 201
b 61 9 25 39 55 69 83 97 111 113 127 141 157 171 187 201
b 62 9 25 39 55 69 83 97 113 127 141 143 157 171 187 201
b 63 9 25 39 55 69 83 97 113 127 129 143 157 171 187 201
b 64 9 25 39 55 69 83 97 99 113 129 143 157 171 187 201
b 65 9 25 39 55 69 83 99 113 115 129 143 157 171 187 201
b 66 9 25 39 55 69 83 85 99 115 129 143 157 171 187 201
b 67 69 83 84 85 99
b 68 9 25 39 55 69 85 99 115 129 143 157 171 173 187 201
b 69 9 25 39 55 69 85 99 115 129 143 157 159 173 187 201
b 70 9 25 39 55 69 71 85 99 115 129 143 159 173 187 201
b 71 9 25 39 55 71 85 99 101 115 129 143 159 173 187 201
b 72 85 99 100 101 115
b 73 9 25 39 55 71 85 87 101 115 129 143 159 173 187 201
b 74 71 85 86 87 101
b 75 55 69 70 71 85
b 76 143 157 158 159 173
b 77 157 171 172 173 187
b 78 99 113 114 115 129
b 79 83 97 98 99 113
b 80 113 127 128 129 143
b 81 127 141 142 143 157
b 82 97 111 112 113 127
b 83 111 125 126 127 141
b 84 39 53 54 55 69
b 85 171 185 186 187 201
b 86 185 199 200 201
b 87 155 169 170 171 185
b 88 136 152 153 169 183 185 199
b 89 169 183 184 185 199
b 90 136 152 153 167 169 183 199
b 91 153 167 168 169 183
b 92 136 152 166 167 183 199
b 93 136 151 152 166
b 94 166 167 183 198 199
b 95 166 167 182 183 198
b 96 108 122 123 124 138
b 97 66 67 80 83 94 96 97 110 111
b 98 66 67 80 82 83 96 97
b 99 66 80 81 82 96
b 100 80 94 95 96 110
b 101 21 35 36 37 51
b 102 62 76 77 78 92
b 103 48 62 63 64 78
b 104 34 48 49 50 64
b 105 5 19 20 21 35
b 106 46 61 62 76
b 107 32 46 47 48 62
b 108 18 32 33 34 48
b 109 3 18 31 32 46
b 110 3 17 18 31 32
b 111 25 39 40 41 55
b 112 13 28 44 45 60
b 113 41 55 56 57 71
b 114 57 71 72 73 87
b 115 13 28 42 44 58 60 74
b 116 13 28 42 57 58 60 73 74
b 117 9 25 39 41 55 71 87 101 115 129 143 159 173 187 201
b 118 60 73 74 87 88 102 118 120 134
b 119 9 25 41 55 57 71 87 101 115 129 143 159 173 187 201
b 120 9 13 25 28 41 42 57 60 73 74
b 121 9 25 41 57 71 73 87 101 115 129 143 159 173 187 201
b 122 115 120 129 131 134 143 147 148 159 161 173 175 187 201
b 123 101 102 115 118 120 129 131 134 143 147 148 159 173 187 201
b 124 9 25 41 57 60 73 74 87 101 115 129 143 159 173 187 201
b 125 60 73 74 87 101 102 115 118 120 129 134 143 159 173 187 201
b 126 101 102 115 118 120 129 134 143 159 173 187 201
b 127 28 42 43 44 58
b 128 13 28 29 44 45
b 129 44 58 59 60 74
b 130 9 13 25 27 28 41 42
b 131 9 11 13 25 27 41
b 132 9 10 11 25
b 133 11 25 26 27 41
b 134 11 12 13 27
b 135 120 134 147 148 159 161 173 175 187 189 201
b 136 120 134 147 148 161 173 175 187 189 201 205
b 137 173 187 189 201 203 205
b 138 189 203 204 205
b 139 173 187 188 189 203
b 140 187 201 202 203
b 141 120 134 147 148 161 175 189 191 205
b 142 175 189 190 191 205
b 143 120 134 147 148 161 175 177 191 205
b 144 120 134 147 148 161 163 177 191 205
b 145 147 161 162 163 177
b 146 120 134 148 163 177 179 180 191 205
b 147 120 134 148 163 164 179 180
b 148 120 134 148 150 164 180
b 149 134 148 149 150 164
b 150 120 134 135 150
b 151 150 164 165 180
b 152 163 177 179 180 191 205 207
b 153 191 205 206 207
b 154 163 177 179 180 191 193 207
b 155 163 177 178 179 193
b 156 177 191 192 193 207
b 157 179 180 193 207 208
b 158 179 180 193 194 208
b 159 161 175 176 177 191
b 160 159 173 174 175 189
b 161 115 129 131 143 145 147 159 161 175
b 162 129 143 144 145 159
b 163 115 129 130 131 145
b 164 131 145 146 147 161
b 165 145 159 160 161 175
b 166 60 74 88 102 104 118 120 134
b 167 104 118 119 120 134
b 168 88 102 103 104 118
b 169 60 74 88 90 104 120
b 170 90 104 105 120
b 171 60 74 75 90
b 172 74 88 89 90 104
b 173 101 102 115 117 118 131 134 147 148
b 174 101 115 116 117 131
b 175 117 118 131 133 134 147 148
b 176 117 131 132 133 147
b 177 195 209 210
b 178 181 196 197
b 179 14 15 30
1 2
2 4
3 179
3 5
4 110
5 128
6 178
6 8
7 177
7 9
8 95
9 158
10 11
11 109
11 12
12 108
12 13
13 107
13 14
14 106
14 15
15 105
15 16
16 104
16 17
17 103
17 18
18 102
18 19
19 101
19 20
20 22
20 21
22 24
22 23
24 26
24 25
26 28
26 27
28 36
28 29
29 32
29 31
29 30
32 33
32 34
32 35
36 97
36 37
37 39
37 38
39 44
39 40
40 41
40 42
40 43
44 46
44 45
46 96
46 47
47 48
48 49
49 50
50 51
51 52
52 88
52 53
53 54
54 55
55 87
55 56
56 85
56 86
56 57
57 59
57 58
59 84
59 60
60 83
60 61
61 82
61 62
62 81
62 63
63 64
63 80
64 79
64 65
65 78
65 66
66 68
66 67
68 77
68 69
69 76
69 70
70 75
70 71
71 73
71 72
73 117
73 74
88 89
88 90
90 91
90 92
92 94
92 93
94 95
97 100
97 98
98 99
109 110
111 117
112 128
112 115
113 119
114 121
115 129
115 127
115 116
116 120
117 119
118 166
118 125
119 121
120 130
120 124
121 124
122 135
122 161
122 123
123 173
123 126
124 125
125 126
130 131
131 132
131 134
131 133
135 136
135 160
136 137
136 141
137 138
137 139
137 140
141 142
141 143
143 144
143 159
144 145
144 146
146 147
146 152
147 148
148 150
148 151
148 149
152 153
152 154
154 157
154 156
154 155
157 158
161 162
161 163
161 164
161 165
166 168
166 169
166 167
169 170
169 171
169 172
173 174
173 175
175 176
